c array.sh: path:     /data/qbf/qbf20/PCNF/trivial_query60_1344n.qdimacs
c array.sh: name:     trivial_query60_1344n
c array.sh: task:     109
c array.sh: host:     c3n19
c array.sh: uname:    Linux c3n19 4.15.0-135-generic #139-Ubuntu SMP Mon Jan 18 17:38:24 UTC 2021 x86_64 x86_64 x86_64 GNU/Linux
c array.sh: start:    Thu Feb 18 10:08:08 CET 2021
c array.sh: noturbo:  1
c array.sh: governor: 32 performance
c array.sh: tmp:      1%
c array.sh: unzipped: /tmp/local-unzipped-18838260-109-trivial_query60_1344n.cnf
*** qbfcert: using tmp directory:
*** qbfcert:   /tmp
trace-size: 246255
solving-res 20
proof-size: 45175
cert-size: 7667
cert-header: aag 1669 1562 0 22 22
merged-header: p cnf 19062 47237
merged-size: 723852
c ---- [ banner ] ------------------------------------------------------------
c
c KISSAT SAT Solver
c Copyright (c) 2019-2020 Armin Biere JKU Linz
c 
c Version 1.0.3 59813addcacc4d6fb880ebdd63685600475aa940
c gcc (Ubuntu 7.5.0-3ubuntu1~18.04) 7.5.0 -W -Wall -O3 -DNEMBEDDED -DNDEBUG -DNMETRICS -DNSTATISTICS
c Sun Feb 14 23:58:54 CET 2021 Linux cluster3 4.15.0-135-generic x86_64
c
c ---- [ parsing ] -----------------------------------------------------------
c
c opened and reading DIMACS file:
c 
c   /tmp/qbfcert_merged_cnf14259.cnf
c 
c parsed 'p cnf 19062 47237' header
c closing input after reading 723852 bytes (707 KB)
c finished parsing after 0.01 seconds
c
c ---- [ solving ] -----------------------------------------------------------
c
c  seconds reductions redundant irredundant
c         MB   restarts    trail     variables
c          level  conflicts   glue        remaining
c
c *  0.01  5 0  0  0   0   0 0% 0 47220 3324 17%
c {  0.01  5 0  0  0   0   0 0% 0 47220 3324 17%
c i  0.01  5 80  0  0   3   0 63% 0 47220 3320 17%
c i  0.01  5 78  0  1   5   1 63% 0 47220 3315 17%
c i  0.01  5 75  0  1   7   2 63% 0 47220 3299 17%
c }  0.01  5 60  0  1   9   2 54% 0 47220 3242 17%
c 0  0.01  5 60  0  1   9   2 54% 0 47220 3242 17%
c
c ---- [ result ] ------------------------------------------------------------
c
s UNSATISFIABLE
c
c ---- [ profiling ] ---------------------------------------------------------
c
c           0.01   92.03 %  parse
c           0.00    7.11 %  search
c           0.00    6.53 %  focused
c           0.00    0.00 %  simplify
c =============================================
c           0.01  100.00 %  total
c
c ---- [ statistics ] --------------------------------------------------------
c
c conflicts:                                9              595.47 per second
c decisions:                              284               31.56 per conflict
c propagations:                         22447          1485179    per second
c restarts:                                 1                9.00 interval
c
c ---- [ resources ] ---------------------------------------------------------
c
c maximum-resident-set-size:          4968448 bytes          5 MB
c process-time:                             0s               0.01 seconds
c
c ---- [ shutting down ] -----------------------------------------------------
c
c exit 20
*** qbfcert: VALID
c array.sh: end:      Thu Feb 18 10:08:08 CET 2021
